1 1
0 0
0 62 63 35 45 54 59 68 66 65 64 0
0 25 27 21 15 11 12 0
0 24 75 74 73 14 22 19 0
0 13 85 81 82 87 84 86 7 100 6 8 9 2 1 10 5 3 4 16 0
0 49 32 46 37 42 34 48 47 36 31 33 40 39 41 28 30 67 58 44 29 60 50 83 0
0 61 55 57 56 38 43 53 0
0 20 18 92 90 26 0
0 17 99 96 91 88 94 98 95 89 93 97 23 0
0 0
0 70 72 71 69 77 78 79 76 80 51 52 0
